p cnf 289 1132
26 36 31 0
-31 46 21 0
49 15 -7 0
-45 -6 -20 0
35 -2 -45 0
-43 -21 -22 0
-15 -21 23 0
-8 48 -49 0
39 -23 -19 0
20 5 2 0
29 -12 10 0
23 7 18 0
-3 15 -26 0
50 -1 -18 0
23 -20 22 0
-47 -46 -15 0
6 -9 50 0
-28 -39 2 0
-48 22 -40 0
8 41 -12 0
49 30 43 0
-37 43 -31 0
-11 44 -26 0
49 10 -25 0
-37 -46 -34 0
11 6 9 0
18 49 50 0
-35 -2 -43 0
-2 20 41 0
-18 -8 11 0
-4 3 -48 0
-31 -40 -1 0
45 -47 -26 0
-38 -40 -1 0
-7 -17 34 0
25 36 -4 0
-45 49 10 0
6 10 5 0
-28 -26 10 0
-32 42 -46 0
-27 33 25 0
-49 -25 26 0
-47 46 -34 0
-50 -12 -1 0
40 -43 1 0
-50 -33 9 0
48 -39 10 0
-29 -4 -30 0
-31 9 34 0
19 -50 49 0
38 36 44 0
34 27 -13 0
-2 -44 49 0
-27 -37 -41 0
-35 13 -19 0
20 41 -37 0
28 29 -20 0
-37 -41 8 0
-39 -34 -44 0
26 -21 -38 0
-14 -11 -16 0
35 -6 2 0
16 -27 -3 0
39 -48 -1 0
50 -23 -27 0
-35 34 -22 0
-1 15 -41 0
-6 46 35 0
40 -14 29 0
-27 14 -50 0
7 -50 48 0
22 7 43 0
30 -11 -24 0
11 -15 40 0
-11 -34 19 0
13 -43 -44 0
26 27 12 0
40 -43 2 0
45 38 -1 0
36 -3 -37 0
-15 -1 34 0
-4 -18 -22 0
-2 19 -50 0
17 -34 -2 0
-50 -14 35 0
-37 -14 -3 0
-32 -26 22 0
4 8 -46 0
-26 11 -17 0
-41 -24 36 0
46 -9 -38 0
-39 -40 -4 0
-4 -21 -31 0
3 -2 -29 0
-21 5 46 0
28 -30 -40 0
39 -19 31 0
26 -18 9 0
-20 -24 -46 0
48 -17 -46 0
-33 -38 -3 0
-12 14 17 0
-14 -4 17 0
-41 43 16 0
27 -4 -3 0
41 -33 43 0
25 8 14 0
26 -31 18 0
24 -18 -14 0
-46 33 5 0
-3 17 -26 0
-30 4 -25 0
-17 45 -49 0
-11 -25 -34 0
-13 9 -43 0
-26 -27 -37 0
6 19 50 0
9 -19 -22 0
26 -18 19 0
7 12 44 0
-34 27 1 0
20 -16 21 0
-2 15 8 0
-36 48 -35 0
-15 -22 36 0
9 -13 -15 0
44 -48 -28 0
39 -29 -47 0
-6 18 -3 0
-13 -6 23 0
23 -47 45 0
-19 33 -7 0
1 42 24 0
-10 18 30 0
-11 -14 -3 0
-38 23 -20 0
-11 -26 -46 0
-14 8 -29 0
-27 -45 2 0
-43 -8 -6 0
12 -16 -49 0
-33 -28 34 0
-41 39 12 0
16 -10 50 0
44 6 -19 0
-50 12 22 0
-37 2 39 0
8 19 -46 0
48 -4 42 0
45 -15 6 0
3 -4 51 0
-3 -4 -51 0
3 4 -51 0
-3 4 51 0
-5 6 52 0
5 6 -52 0
-5 -6 -52 0
5 -6 52 0
8 -11 53 0
-8 -11 -53 0
8 11 -53 0
-8 11 53 0
13 14 54 0
-13 14 -54 0
13 -14 -54 0
-13 -14 54 0
15 -16 55 0
-15 -16 -55 0
15 16 -55 0
-15 16 55 0
-17 -20 56 0
17 -20 -56 0
-17 20 -56 0
17 20 56 0
-22 23 57 0
22 23 -57 0
-22 -23 -57 0
22 -23 57 0
27 29 58 0
-27 29 -58 0
27 -29 -58 0
-27 -29 58 0
-31 32 59 0
31 32 -59 0
-31 -32 -59 0
31 -32 59 0
33 34 60 0
-33 34 -60 0
33 -34 -60 0
-33 -34 60 0
35 -37 61 0
-35 -37 -61 0
35 37 -61 0
-35 37 61 0
40 42 62 0
-40 42 -62 0
40 -42 -62 0
-40 -42 62 0
-45 -47 63 0
45 -47 -63 0
-45 47 -63 0
45 47 63 0
48 49 64 0
-48 49 -64 0
48 -49 -64 0
-48 -49 64 0
51 -52 65 0
-51 -52 -65 0
51 52 -65 0
-51 52 65 0
53 -54 66 0
-53 -54 -66 0
53 54 -66 0
-53 54 66 0
55 -56 67 0
-55 -56 -67 0
55 56 -67 0
-55 56 67 0
57 -58 68 0
-57 -58 -68 0
57 58 -68 0
-57 58 68 0
59 -60 69 0
-59 -60 -69 0
59 60 -69 0
-59 60 69 0
61 -62 70 0
-61 -62 -70 0
61 62 -70 0
-61 62 70 0
63 -64 71 0
-63 -64 -71 0
63 64 -71 0
-63 64 71 0
65 -66 72 0
-65 -66 -72 0
65 66 -72 0
-65 66 72 0
67 -68 73 0
-67 -68 -73 0
67 68 -73 0
-67 68 73 0
69 -70 74 0
-69 -70 -74 0
69 70 -74 0
-69 70 74 0
71 -72 75 0
-71 -72 -75 0
71 72 -75 0
-71 72 75 0
73 -74 76 0
-73 -74 -76 0
73 74 -76 0
-73 74 76 0
75 76 0
-75 -76 0
-1 -4 77 0
1 -4 -77 0
-1 4 -77 0
1 4 77 0
-7 9 78 0
7 9 -78 0
-7 -9 -78 0
7 -9 78 0
-14 15 79 0
14 15 -79 0
-14 -15 -79 0
14 -15 79 0
-16 -18 80 0
16 -18 -80 0
-16 18 -80 0
16 18 80 0
-19 -20 81 0
19 -20 -81 0
-19 20 -81 0
19 20 81 0
-21 -23 82 0
21 -23 -82 0
-21 23 -82 0
21 23 82 0
-26 28 83 0
26 28 -83 0
-26 -28 -83 0
26 -28 83 0
-29 30 84 0
29 30 -84 0
-29 -30 -84 0
29 -30 84 0
35 -38 85 0
-35 -38 -85 0
35 38 -85 0
-35 38 85 0
40 41 86 0
-40 41 -86 0
40 -41 -86 0
-40 -41 86 0
42 48 87 0
-42 48 -87 0
42 -48 -87 0
-42 -48 87 0
-49 -50 88 0
49 -50 -88 0
-49 50 -88 0
49 50 88 0
77 -78 89 0
-77 -78 -89 0
77 78 -89 0
-77 78 89 0
79 -80 90 0
-79 -80 -90 0
79 80 -90 0
-79 80 90 0
81 -82 91 0
-81 -82 -91 0
81 82 -91 0
-81 82 91 0
83 -84 92 0
-83 -84 -92 0
83 84 -92 0
-83 84 92 0
85 -86 93 0
-85 -86 -93 0
85 86 -93 0
-85 86 93 0
87 -88 94 0
-87 -88 -94 0
87 88 -94 0
-87 88 94 0
89 -90 95 0
-89 -90 -95 0
89 90 -95 0
-89 90 95 0
91 -92 96 0
-91 -92 -96 0
91 92 -96 0
-91 92 96 0
93 -94 97 0
-93 -94 -97 0
93 94 -97 0
-93 94 97 0
-95 -96 97 0
95 -96 -97 0
-95 96 -97 0
95 96 97 0
1 3 98 0
-1 3 -98 0
1 -3 -98 0
-1 -3 98 0
4 -5 99 0
-4 -5 -99 0
4 5 -99 0
-4 5 99 0
6 7 100 0
-6 7 -100 0
6 -7 -100 0
-6 -7 100 0
-11 -12 101 0
11 -12 -101 0
-11 12 -101 0
11 12 101 0
-13 -16 102 0
13 -16 -102 0
-13 16 -102 0
13 16 102 0
18 19 103 0
-18 19 -103 0
18 -19 -103 0
-18 -19 103 0
-21 24 104 0
21 24 -104 0
-21 -24 -104 0
21 -24 104 0
27 -28 105 0
-27 -28 -105 0
27 28 -105 0
-27 28 105 0
-32 -35 106 0
32 -35 -106 0
-32 35 -106 0
32 35 106 0
-36 37 107 0
36 37 -107 0
-36 -37 -107 0
36 -37 107 0
-41 45 108 0
41 45 -108 0
-41 -45 -108 0
41 -45 108 0
46 48 109 0
-46 48 -109 0
46 -48 -109 0
-46 -48 109 0
49 50 110 0
-49 50 -110 0
49 -50 -110 0
-49 -50 110 0
98 -99 111 0
-98 -99 -111 0
98 99 -111 0
-98 99 111 0
100 -101 112 0
-100 -101 -112 0
100 101 -112 0
-100 101 112 0
102 -103 113 0
-102 -103 -113 0
102 103 -113 0
-102 103 113 0
104 -105 114 0
-104 -105 -114 0
104 105 -114 0
-104 105 114 0
106 -107 115 0
-106 -107 -115 0
106 107 -115 0
-106 107 115 0
108 -109 116 0
-108 -109 -116 0
108 109 -116 0
-108 109 116 0
110 -111 117 0
-110 -111 -117 0
110 111 -117 0
-110 111 117 0
112 -113 118 0
-112 -113 -118 0
112 113 -118 0
-112 113 118 0
114 -115 119 0
-114 -115 -119 0
114 115 -119 0
-114 115 119 0
116 -117 120 0
-116 -117 -120 0
116 117 -120 0
-116 117 120 0
118 -119 121 0
-118 -119 -121 0
118 119 -121 0
-118 119 121 0
120 121 0
-120 -121 0
-3 4 122 0
3 4 -122 0
-3 -4 -122 0
3 -4 122 0
-5 6 123 0
5 6 -123 0
-5 -6 -123 0
5 -6 123 0
8 9 124 0
-8 9 -124 0
8 -9 -124 0
-8 -9 124 0
10 11 125 0
-10 11 -125 0
10 -11 -125 0
-10 -11 125 0
-12 -13 126 0
12 -13 -126 0
-12 13 -126 0
12 13 126 0
15 16 127 0
-15 16 -127 0
15 -16 -127 0
-15 -16 127 0
-18 22 128 0
18 22 -128 0
-18 -22 -128 0
18 -22 128 0
-27 -28 129 0
27 -28 -129 0
-27 28 -129 0
27 28 129 0
-30 33 130 0
30 33 -130 0
-30 -33 -130 0
30 -33 130 0
-34 35 131 0
34 35 -131 0
-34 -35 -131 0
34 -35 131 0
36 39 132 0
-36 39 -132 0
36 -39 -132 0
-36 -39 132 0
40 -41 133 0
-40 -41 -133 0
40 41 -133 0
-40 41 133 0
-42 -45 134 0
42 -45 -134 0
-42 45 -134 0
42 45 134 0
-48 -49 135 0
48 -49 -135 0
-48 49 -135 0
48 49 135 0
121 -122 136 0
-121 -122 -136 0
121 122 -136 0
-121 122 136 0
123 -124 137 0
-123 -124 -137 0
123 124 -137 0
-123 124 137 0
125 -126 138 0
-125 -126 -138 0
125 126 -138 0
-125 126 138 0
127 -128 139 0
-127 -128 -139 0
127 128 -139 0
-127 128 139 0
129 -130 140 0
-129 -130 -140 0
129 130 -140 0
-129 130 140 0
131 -132 141 0
-131 -132 -141 0
131 132 -141 0
-131 132 141 0
133 -134 142 0
-133 -134 -142 0
133 134 -142 0
-133 134 142 0
135 -136 143 0
-135 -136 -143 0
135 136 -143 0
-135 136 143 0
137 -138 144 0
-137 -138 -144 0
137 138 -144 0
-137 138 144 0
139 -140 145 0
-139 -140 -145 0
139 140 -145 0
-139 140 145 0
141 -142 146 0
-141 -142 -146 0
141 142 -146 0
-141 142 146 0
143 -144 147 0
-143 -144 -147 0
143 144 -147 0
-143 144 147 0
145 -146 148 0
-145 -146 -148 0
145 146 -148 0
-145 146 148 0
147 148 0
-147 -148 0
-1 4 149 0
1 4 -149 0
-1 -4 -149 0
1 -4 149 0
-5 -7 150 0
5 -7 -150 0
-5 7 -150 0
5 7 150 0
8 -10 151 0
-8 -10 -151 0
8 10 -151 0
-8 10 151 0
15 16 152 0
-15 16 -152 0
15 -16 -152 0
-15 -16 152 0
17 -19 153 0
-17 -19 -153 0
17 19 -153 0
-17 19 153 0
20 23 154 0
-20 23 -154 0
20 -23 -154 0
-20 -23 154 0
25 -27 155 0
-25 -27 -155 0
25 27 -155 0
-25 27 155 0
-33 36 156 0
33 36 -156 0
-33 -36 -156 0
33 -36 156 0
-37 38 157 0
37 38 -157 0
-37 -38 -157 0
37 -38 157 0
41 42 158 0
-41 42 -158 0
41 -42 -158 0
-41 -42 158 0
-47 -50 159 0
47 -50 -159 0
-47 50 -159 0
47 50 159 0
149 -150 160 0
-149 -150 -160 0
149 150 -160 0
-149 150 160 0
151 -152 161 0
-151 -152 -161 0
151 152 -161 0
-151 152 161 0
153 -154 162 0
-153 -154 -162 0
153 154 -162 0
-153 154 162 0
155 -156 163 0
-155 -156 -163 0
155 156 -163 0
-155 156 163 0
157 -158 164 0
-157 -158 -164 0
157 158 -164 0
-157 158 164 0
159 -160 165 0
-159 -160 -165 0
159 160 -165 0
-159 160 165 0
161 -162 166 0
-161 -162 -166 0
161 162 -166 0
-161 162 166 0
163 -164 167 0
-163 -164 -167 0
163 164 -167 0
-163 164 167 0
-165 -166 167 0
165 -166 -167 0
-165 166 -167 0
165 166 167 0
-1 2 168 0
1 2 -168 0
-1 -2 -168 0
1 -2 168 0
-4 -5 169 0
4 -5 -169 0
-4 5 -169 0
4 5 169 0
7 -9 170 0
-7 -9 -170 0
7 9 -170 0
-7 9 170 0
-10 12 171 0
10 12 -171 0
-10 -12 -171 0
10 -12 171 0
13 -16 172 0
-13 -16 -172 0
13 16 -172 0
-13 16 172 0
-18 20 173 0
18 20 -173 0
-18 -20 -173 0
18 -20 173 0
-21 22 174 0
21 22 -174 0
-21 -22 -174 0
21 -22 174 0
-25 -26 175 0
25 -26 -175 0
-25 26 -175 0
25 26 175 0
28 29 176 0
-28 29 -176 0
28 -29 -176 0
-28 -29 176 0
30 -32 177 0
-30 -32 -177 0
30 32 -177 0
-30 32 177 0
36 37 178 0
-36 37 -178 0
36 -37 -178 0
-36 -37 178 0
38 39 179 0
-38 39 -179 0
38 -39 -179 0
-38 -39 179 0
-40 41 180 0
40 41 -180 0
-40 -41 -180 0
40 -41 180 0
-42 43 181 0
42 43 -181 0
-42 -43 -181 0
42 -43 181 0
-44 -45 182 0
44 -45 -182 0
-44 45 -182 0
44 45 182 0
167 -168 183 0
-167 -168 -183 0
167 168 -183 0
-167 168 183 0
169 -170 184 0
-169 -170 -184 0
169 170 -184 0
-169 170 184 0
171 -172 185 0
-171 -172 -185 0
171 172 -185 0
-171 172 185 0
173 -174 186 0
-173 -174 -186 0
173 174 -186 0
-173 174 186 0
175 -176 187 0
-175 -176 -187 0
175 176 -187 0
-175 176 187 0
177 -178 188 0
-177 -178 -188 0
177 178 -188 0
-177 178 188 0
179 -180 189 0
-179 -180 -189 0
179 180 -189 0
-179 180 189 0
181 -182 190 0
-181 -182 -190 0
181 182 -190 0
-181 182 190 0
183 -184 191 0
-183 -184 -191 0
183 184 -191 0
-183 184 191 0
185 -186 192 0
-185 -186 -192 0
185 186 -192 0
-185 186 192 0
187 -188 193 0
-187 -188 -193 0
187 188 -193 0
-187 188 193 0
189 -190 194 0
-189 -190 -194 0
189 190 -194 0
-189 190 194 0
191 -192 195 0
-191 -192 -195 0
191 192 -195 0
-191 192 195 0
193 -194 196 0
-193 -194 -196 0
193 194 -196 0
-193 194 196 0
195 196 0
-195 -196 0
3 4 197 0
-3 4 -197 0
3 -4 -197 0
-3 -4 197 0
9 10 198 0
-9 10 -198 0
9 -10 -198 0
-9 -10 198 0
12 13 199 0
-12 13 -199 0
12 -13 -199 0
-12 -13 199 0
-14 15 200 0
14 15 -200 0
-14 -15 -200 0
14 -15 200 0
-17 -20 201 0
17 -20 -201 0
-17 20 -201 0
17 20 201 0
-21 22 202 0
21 22 -202 0
-21 -22 -202 0
21 -22 202 0
-23 26 203 0
23 26 -203 0
-23 -26 -203 0
23 -26 203 0
27 -28 204 0
-27 -28 -204 0
27 28 -204 0
-27 28 204 0
-29 -30 205 0
29 -30 -205 0
-29 30 -205 0
29 30 205 0
-31 32 206 0
31 32 -206 0
-31 -32 -206 0
31 -32 206 0
-33 -34 207 0
33 -34 -207 0
-33 34 -207 0
33 34 207 0
35 -37 208 0
-35 -37 -208 0
35 37 -208 0
-35 37 208 0
40 41 209 0
-40 41 -209 0
40 -41 -209 0
-40 -41 209 0
-44 45 210 0
44 45 -210 0
-44 -45 -210 0
44 -45 210 0
47 48 211 0
-47 48 -211 0
47 -48 -211 0
-47 -48 211 0
196 -197 212 0
-196 -197 -212 0
196 197 -212 0
-196 197 212 0
198 -199 213 0
-198 -199 -213 0
198 199 -213 0
-198 199 213 0
200 -201 214 0
-200 -201 -214 0
200 201 -214 0
-200 201 214 0
202 -203 215 0
-202 -203 -215 0
202 203 -215 0
-202 203 215 0
204 -205 216 0
-204 -205 -216 0
204 205 -216 0
-204 205 216 0
206 -207 217 0
-206 -207 -217 0
206 207 -217 0
-206 207 217 0
208 -209 218 0
-208 -209 -218 0
208 209 -218 0
-208 209 218 0
210 -211 219 0
-210 -211 -219 0
210 211 -219 0
-210 211 219 0
212 -213 220 0
-212 -213 -220 0
212 213 -220 0
-212 213 220 0
214 -215 221 0
-214 -215 -221 0
214 215 -221 0
-214 215 221 0
216 -217 222 0
-216 -217 -222 0
216 217 -222 0
-216 217 222 0
218 -219 223 0
-218 -219 -223 0
218 219 -223 0
-218 219 223 0
220 -221 224 0
-220 -221 -224 0
220 221 -224 0
-220 221 224 0
222 -223 225 0
-222 -223 -225 0
222 223 -225 0
-222 223 225 0
224 225 0
-224 -225 0
2 3 226 0
-2 3 -226 0
2 -3 -226 0
-2 -3 226 0
-6 -9 227 0
6 -9 -227 0
-6 9 -227 0
6 9 227 0
-10 11 228 0
10 11 -228 0
-10 -11 -228 0
10 -11 228 0
-14 18 229 0
14 18 -229 0
-14 -18 -229 0
14 -18 229 0
29 30 230 0
-29 30 -230 0
29 -30 -230 0
-29 -30 230 0
33 -34 231 0
-33 -34 -231 0
33 34 -231 0
-33 34 231 0
35 38 232 0
-35 38 -232 0
35 -38 -232 0
-35 -38 232 0
-42 43 233 0
42 43 -233 0
-42 -43 -233 0
42 -43 233 0
225 -226 234 0
-225 -226 -234 0
225 226 -234 0
-225 226 234 0
227 -228 235 0
-227 -228 -235 0
227 228 -235 0
-227 228 235 0
229 -230 236 0
-229 -230 -236 0
229 230 -236 0
-229 230 236 0
231 -232 237 0
-231 -232 -237 0
231 232 -237 0
-231 232 237 0
233 -234 238 0
-233 -234 -238 0
233 234 -238 0
-233 234 238 0
235 -236 239 0
-235 -236 -239 0
235 236 -239 0
-235 236 239 0
-237 -238 239 0
237 -238 -239 0
-237 238 -239 0
237 238 239 0
3 -4 240 0
-3 -4 -240 0
3 4 -240 0
-3 4 240 0
5 7 241 0
-5 7 -241 0
5 -7 -241 0
-5 -7 241 0
-8 9 242 0
8 9 -242 0
-8 -9 -242 0
8 -9 242 0
11 12 243 0
-11 12 -243 0
11 -12 -243 0
-11 -12 243 0
15 -18 244 0
-15 -18 -244 0
15 18 -244 0
-15 18 244 0
19 -20 245 0
-19 -20 -245 0
19 20 -245 0
-19 20 245 0
21 -22 246 0
-21 -22 -246 0
21 22 -246 0
-21 22 246 0
-23 -27 247 0
23 -27 -247 0
-23 27 -247 0
23 27 247 0
-29 30 248 0
29 30 -248 0
-29 -30 -248 0
29 -30 248 0
-32 -33 249 0
32 -33 -249 0
-32 33 -249 0
32 33 249 0
36 -37 250 0
-36 -37 -250 0
36 37 -250 0
-36 37 250 0
39 42 251 0
-39 42 -251 0
39 -42 -251 0
-39 -42 251 0
43 47 252 0
-43 47 -252 0
43 -47 -252 0
-43 -47 252 0
-48 50 253 0
48 50 -253 0
-48 -50 -253 0
48 -50 253 0
240 -241 254 0
-240 -241 -254 0
240 241 -254 0
-240 241 254 0
242 -243 255 0
-242 -243 -255 0
242 243 -255 0
-242 243 255 0
244 -245 256 0
-244 -245 -256 0
244 245 -256 0
-244 245 256 0
246 -247 257 0
-246 -247 -257 0
246 247 -257 0
-246 247 257 0
248 -249 258 0
-248 -249 -258 0
248 249 -258 0
-248 249 258 0
250 -251 259 0
-250 -251 -259 0
250 251 -259 0
-250 251 259 0
252 -253 260 0
-252 -253 -260 0
252 253 -260 0
-252 253 260 0
254 -255 261 0
-254 -255 -261 0
254 255 -261 0
-254 255 261 0
256 -257 262 0
-256 -257 -262 0
256 257 -262 0
-256 257 262 0
258 -259 263 0
-258 -259 -263 0
258 259 -263 0
-258 259 263 0
260 -261 264 0
-260 -261 -264 0
260 261 -264 0
-260 261 264 0
262 -263 265 0
-262 -263 -265 0
262 263 -265 0
-262 263 265 0
264 265 0
-264 -265 0
-2 -3 266 0
2 -3 -266 0
-2 3 -266 0
2 3 266 0
4 -6 267 0
-4 -6 -267 0
4 6 -267 0
-4 6 267 0
-9 -10 268 0
9 -10 -268 0
-9 10 -268 0
9 10 268 0
11 15 269 0
-11 15 -269 0
11 -15 -269 0
-11 -15 269 0
17 -18 270 0
-17 -18 -270 0
17 18 -270 0
-17 18 270 0
20 22 271 0
-20 22 -271 0
20 -22 -271 0
-20 -22 271 0
-28 29 272 0
28 29 -272 0
-28 -29 -272 0
28 -29 272 0
-31 32 273 0
31 32 -273 0
-31 -32 -273 0
31 -32 273 0
33 37 274 0
-33 37 -274 0
33 -37 -274 0
-33 -37 274 0
39 -41 275 0
-39 -41 -275 0
39 41 -275 0
-39 41 275 0
43 -46 276 0
-43 -46 -276 0
43 46 -276 0
-43 46 276 0
47 48 277 0
-47 48 -277 0
47 -48 -277 0
-47 -48 277 0
49 -50 278 0
-49 -50 -278 0
49 50 -278 0
-49 50 278 0
266 -267 279 0
-266 -267 -279 0
266 267 -279 0
-266 267 279 0
268 -269 280 0
-268 -269 -280 0
268 269 -280 0
-268 269 280 0
270 -271 281 0
-270 -271 -281 0
270 271 -281 0
-270 271 281 0
272 -273 282 0
-272 -273 -282 0
272 273 -282 0
-272 273 282 0
274 -275 283 0
-274 -275 -283 0
274 275 -283 0
-274 275 283 0
276 -277 284 0
-276 -277 -284 0
276 277 -284 0
-276 277 284 0
278 -279 285 0
-278 -279 -285 0
278 279 -285 0
-278 279 285 0
280 -281 286 0
-280 -281 -286 0
280 281 -286 0
-280 281 286 0
282 -283 287 0
-282 -283 -287 0
282 283 -287 0
-282 283 287 0
284 -285 288 0
-284 -285 -288 0
284 285 -288 0
-284 285 288 0
286 -287 289 0
-286 -287 -289 0
286 287 -289 0
-286 287 289 0
288 289 0
-288 -289 0
